p tw 26 39
1 3
1 19
1 21
2 15
2 18
2 26
3 21
3 22
4 10
4 16
4 25
5 22
5 23
5 25
6 9
6 15
6 23
7 10
7 18
7 22
8 9
8 17
8 20
9 17
10 12
11 13
11 16
11 26
12 14
12 16
13 14
13 20
14 24
15 17
18 20
19 23
19 26
21 24
24 25
